20
127
20
51
19
38
96
3
20
25
54
59
3
26
70
23
53
23
80
92
3
58
93
0 2
0 3
0 4
0 5
0 6
0 8
0 10
0 12
0 14
0 15
0 16
0 17
0 18
1 2
1 3
1 4
1 6
1 8
1 10
1 11
1 12
1 13
1 15
1 17
1 18
2 3
2 4
2 5
2 7
2 8
2 11
2 12
2 14
2 16
2 17
2 18
2 19
3 5
3 6
3 7
3 10
3 12
3 15
3 17
4 5
4 6
4 7
4 8
4 11
4 13
4 14
4 15
4 18
4 19
5 6
5 7
5 9
5 11
5 12
5 14
5 16
5 17
6 7
6 8
6 9
6 11
6 12
6 13
6 14
6 16
6 17
6 18
7 8
7 9
7 10
7 11
7 13
7 14
7 15
7 17
7 18
7 19
8 9
8 10
8 12
8 14
8 16
8 17
8 18
9 10
9 11
9 12
9 13
9 15
9 17
9 18
9 19
10 11
10 13
10 14
10 15
10 16
10 17
10 18
10 19
11 13
11 15
11 16
11 17
11 19
12 13
12 14
12 15
12 16
12 17
12 18
12 19
13 16
13 17
13 19
14 15
14 16
14 19
15 16
15 18
15 19
16 18
11
16
19
2
0
6
9
18
8
17
3
7
5
10
14
13
15
4
12
1
